40
    12    46     7    16    55    65    44    92    14    38    49   100    12    98    44    88    99    30    33     2    51    70    93    97    75    12    82    26     5    98    36    48     4    26    69    25    61    47    72    20
     2     8     3     4     9     9     9     7     3     8     2     8     5     5     4     3     7     5     2     6     7     1     6     3     2     1     7     3     9     8     3     2     2     3     3    10     3     1    10     7
  1309   524   939   577   378   358   220   611   813   508   587  1209   762  1001   688   452   299  1344   972   211  1322  1359   349   824   973   269   486  1054   933  1070  1286   993   849   209   492   851   569  1356   914   332
